presolving:
(round 1, fast)       2520 del vars, 2220 del conss, 0 add conss, 11407 chg bounds, 0 chg sides, 0 chg coeffs, 0 upgd conss, 0 impls, 0 clqs
(round 2, fast)       2520 del vars, 2220 del conss, 0 add conss, 11407 chg bounds, 300 chg sides, 0 chg coeffs, 0 upgd conss, 0 impls, 0 clqs
   (0.2s) running MILP presolver
   (0.2s) MILP presolver (2 rounds): 0 aggregations, 0 fixings, 9 bound changes
   (0.3s) probing cycle finished: starting next cycle
   (0.3s) symmetry computation started: requiring (bin +, int -, cont +), (fixed: bin -, int +, cont -)
   (0.3s) no symmetry present
   (0.3s) symmetry computation started: requiring (bin +, int +, cont +), (fixed: bin -, int -, cont -)
   (0.3s) no symmetry present
presolving (3 rounds: 3 fast, 1 medium, 1 exhaustive):
 2520 deleted vars, 2220 deleted constraints, 0 added constraints, 11416 tightened bounds, 0 added holes, 300 changed sides, 0 changed coefficients
 0 implications, 0 cliques
presolved problem has 11137 variables (37 bin, 11100 int, 0 impl, 0 cont) and 337 constraints
    337 constraints of type <linear>
Presolving Time: 0.23

 time | node  | left  |LP iter|LP it/n|mem/heur|mdpt |vars |cons |rows |cuts |sepa|confs|strbr|  dualbound   | primalbound  |  gap   | compl. 
t 0.3s|     1 |     0 |     0 |     - | trivial|   0 |  11k| 337 |   0 |   0 |  0 |   0 |   0 |-2.634500e+08 | 8.430000e+06 |    Inf | unknown
  0.4s|     1 |     0 |  1190 |     - |    76M |   0 |  11k| 337 | 337 |   0 |  0 |   0 |   0 | 5.146855e+05 | 8.430000e+06 |1537.89%| unknown
r 0.5s|     1 |     0 |  1190 |     - |simplero|   0 |  11k| 337 | 337 |   0 |  0 |   0 |   0 | 5.146855e+05 | 6.569352e+05 |  27.64%| unknown
  0.7s|     1 |     0 |  1356 |     - |    79M |   0 |  11k| 337 | 367 |  30 |  1 |   0 |   0 | 5.326578e+05 | 6.569352e+05 |  23.33%| unknown
  0.8s|     1 |     0 |  1548 |     - |    81M |   0 |  11k| 337 | 393 |  56 |  2 |   0 |   0 | 5.404370e+05 | 6.569352e+05 |  21.56%| unknown
  1.0s|     1 |     0 |  1782 |     - |    82M |   0 |  11k| 337 | 415 |  78 |  3 |   0 |   0 | 5.436837e+05 | 6.569352e+05 |  20.83%| unknown
  1.1s|     1 |     0 |  1970 |     - |    82M |   0 |  11k| 337 | 436 |  99 |  4 |   0 |   0 | 5.459171e+05 | 6.569352e+05 |  20.34%| unknown
  1.4s|     1 |     0 |  2167 |     - |    82M |   0 |  11k| 337 | 454 | 117 |  5 |   0 |   0 | 5.472757e+05 | 6.569352e+05 |  20.04%| unknown
  1.6s|     1 |     0 |  2494 |     - |    83M |   0 |  11k| 337 | 475 | 138 |  6 |   0 |   0 | 5.485117e+05 | 6.569352e+05 |  19.77%| unknown
  1.8s|     1 |     0 |  2699 |     - |    83M |   0 |  11k| 337 | 493 | 156 |  7 |   0 |   0 | 5.491685e+05 | 6.569352e+05 |  19.62%| unknown
  2.0s|     1 |     0 |  2915 |     - |    84M |   0 |  11k| 337 | 510 | 173 |  8 |   0 |   0 | 5.494079e+05 | 6.569352e+05 |  19.57%| unknown
  2.2s|     1 |     0 |  3156 |     - |    84M |   0 |  11k| 337 | 523 | 186 |  9 |   0 |   0 | 5.496574e+05 | 6.569352e+05 |  19.52%| unknown
  2.3s|     1 |     0 |  3305 |     - |    84M |   0 |  11k| 337 | 533 | 196 | 10 |   0 |   0 | 5.497920e+05 | 6.569352e+05 |  19.49%| unknown
  2.5s|     1 |     0 |  3455 |     - |    86M |   0 |  11k| 337 | 545 | 208 | 11 |   0 |   0 | 5.499452e+05 | 6.569352e+05 |  19.45%| unknown
  2.6s|     1 |     0 |  3574 |     - |    86M |   0 |  11k| 337 | 559 | 222 | 12 |   0 |   0 | 5.501748e+05 | 6.569352e+05 |  19.40%| unknown
 time | node  | left  |LP iter|LP it/n|mem/heur|mdpt |vars |cons |rows |cuts |sepa|confs|strbr|  dualbound   | primalbound  |  gap   | compl. 
  2.8s|     1 |     0 |  3660 |     - |    86M |   0 |  11k| 337 | 572 | 235 | 13 |   0 |   0 | 5.502676e+05 | 6.569352e+05 |  19.38%| unknown
  2.9s|     1 |     0 |  3814 |     - |    86M |   0 |  11k| 337 | 587 | 250 | 14 |   0 |   0 | 5.504799e+05 | 6.569352e+05 |  19.34%| unknown
  3.1s|     1 |     0 |  3934 |     - |    86M |   0 |  11k| 337 | 596 | 259 | 15 |   0 |   0 | 5.506215e+05 | 6.569352e+05 |  19.31%| unknown
  3.2s|     1 |     0 |  3986 |     - |    86M |   0 |  11k| 337 | 600 | 263 | 16 |   0 |   0 | 5.506917e+05 | 6.569352e+05 |  19.29%| unknown
d 3.4s|     1 |     0 |  4250 |     - |farkasdi|   0 |  11k| 337 | 600 |   0 | 16 |   0 |   0 | 5.506917e+05 | 6.334758e+05 |  15.03%| unknown
d 3.4s|     1 |     0 |  4326 |     - |farkasdi|   0 |  11k| 337 | 600 |   0 | 16 |   0 |   0 | 5.506917e+05 | 6.267676e+05 |  13.81%| unknown
d 3.4s|     1 |     0 |  4360 |     - |farkasdi|   0 |  11k| 337 | 600 |   0 | 16 |   0 |   0 | 5.506917e+05 | 6.157556e+05 |  11.81%| unknown
d 3.4s|     1 |     0 |  4410 |     - |farkasdi|   0 |  11k| 337 | 600 |   0 | 16 |   0 |   0 | 5.506917e+05 | 5.900438e+05 |   7.15%| unknown
d 3.4s|     1 |     0 |  4425 |     - |farkasdi|   0 |  11k| 337 | 600 |   0 | 16 |   0 |   0 | 5.506917e+05 | 5.818791e+05 |   5.66%| unknown
d 3.4s|     1 |     0 |  4467 |     - |farkasdi|   0 |  11k| 337 | 600 |   0 | 16 |   0 |   0 | 5.506917e+05 | 5.811116e+05 |   5.52%| unknown
d 3.5s|     1 |     0 |  4553 |     - |farkasdi|   0 |  11k| 337 | 600 |   0 | 16 |   0 |   0 | 5.506917e+05 | 5.742929e+05 |   4.29%| unknown
d 3.5s|     1 |     0 |  4637 |     - |farkasdi|   0 |  11k| 337 | 600 |   0 | 16 |   0 |   0 | 5.506917e+05 | 5.713639e+05 |   3.75%| unknown
d 3.5s|     1 |     0 |  4678 |     - |farkasdi|   0 |  11k| 337 | 600 |   0 | 16 |   0 |   0 | 5.506917e+05 | 5.664493e+05 |   2.86%| unknown
d 3.5s|     1 |     0 |  4679 |     - |farkasdi|   0 |  11k| 337 | 600 |   0 | 16 |   0 |   0 | 5.506917e+05 | 5.663814e+05 |   2.85%| unknown
  3.8s|     1 |     0 |  4684 |     - |    92M |   0 |  11k| 337 | 600 | 263 | 16 |   0 |   0 | 5.506917e+05 | 5.663814e+05 |   2.85%| unknown
 time | node  | left  |LP iter|LP it/n|mem/heur|mdpt |vars |cons |rows |cuts |sepa|confs|strbr|  dualbound   | primalbound  |  gap   | compl. 
  3.9s|     1 |     0 |  4742 |     - |    92M |   0 |  11k| 337 | 605 | 268 | 17 |   0 |   0 | 5.508338e+05 | 5.663814e+05 |   2.82%| unknown
  3.9s|     1 |     0 |  4772 |     - |    92M |   0 |  11k| 337 | 603 | 270 | 18 |   0 |   0 | 5.508622e+05 | 5.663814e+05 |   2.82%| unknown
  5.8s|     1 |     2 |  4772 |     - |    97M |   0 |  11k| 337 | 603 | 270 | 18 |   0 |  19 | 5.510457e+05 | 5.663814e+05 |   2.78%| unknown
*24.3s|    16 |    11 |  6659 | 172.3 |    LP  |  12 |  11k| 338 | 611 | 315 |  4 |   1 | 621 | 5.512637e+05 | 5.661442e+05 |   2.70%| unknown
*24.4s|    17 |    10 |  6673 | 162.4 |    LP  |  12 |  11k| 338 | 611 | 315 |  4 |   1 | 623 | 5.512637e+05 | 5.658865e+05 |   2.65%| unknown
*27.5s|    19 |    10 |  7295 | 178.9 |strongbr|  12 |  11k| 338 | 628 | 362 |  1 |   1 | 735 | 5.512637e+05 | 5.651485e+05 |   2.52%| unknown
*27.8s|    19 |    10 |  7313 | 179.9 |    LP  |  12 |  11k| 338 | 628 | 362 |  3 |   1 | 747 | 5.512637e+05 | 5.649968e+05 |   2.49%| unknown
*29.0s|    22 |    11 |  7363 | 156.6 |    LP  |  13 |  11k| 338 | 628 | 362 |  4 |   1 | 805 | 5.512637e+05 | 5.649569e+05 |   2.48%| unknown
*29.2s|    28 |    11 |  7410 | 123.6 |    LP  |  16 |  11k| 341 | 628 | 362 |  2 |   4 | 809 | 5.512637e+05 | 5.649553e+05 |   2.48%| unknown
*30.1s|    31 |     8 |  7473 | 113.3 |strongbr|  16 |  11k| 341 | 623 | 362 |  1 |   4 | 856 | 5.512637e+05 | 5.640726e+05 |   2.32%| unknown
*30.1s|    31 |     8 |  7473 | 113.3 |strongbr|  16 |  11k| 341 | 623 | 362 |  1 |   4 | 857 | 5.512637e+05 | 5.640671e+05 |   2.32%| unknown
*37.5s|    55 |    10 |  9255 |  95.9 |strongbr|  16 |  11k| 349 | 601 | 388 |  1 |  12 |1136 | 5.512637e+05 | 5.625757e+05 |   2.05%|   7.32%
*37.6s|    55 |    10 |  9256 |  96.0 |strongbr|  16 |  11k| 349 | 601 | 388 |  3 |  12 |1144 | 5.512637e+05 | 5.625628e+05 |   2.05%|   7.32%
*39.1s|    64 |    11 |  9628 |  88.2 |strongbr|  16 |  11k| 349 | 611 | 404 |  1 |  12 |1174 | 5.512637e+05 | 5.613283e+05 |   1.83%|   8.42%
 48.1s|   100 |    15 | 11650 |  76.5 |   154M |  16 |  11k| 355 | 609 | 444 |  0 |  18 |1512 | 5.512637e+05 | 5.613283e+05 |   1.83%|  15.16%
 time | node  | left  |LP iter|LP it/n|mem/heur|mdpt |vars |cons |rows |cuts |sepa|confs|strbr|  dualbound   | primalbound  |  gap   | compl. 
*48.8s|   109 |    18 | 11887 |  72.3 |    LP  |  17 |  11k| 355 | 605 | 444 |  2 |  18 |1534 | 5.512637e+05 | 5.607602e+05 |   1.72%|  15.18%
*60.8s|   136 |    21 | 14131 |  74.5 |    LP  |  17 |  11k| 357 | 612 | 490 |  1 |  20 |2011 | 5.514979e+05 | 5.597015e+05 |   1.49%|  16.13%
*66.8s|   163 |    22 | 15998 |  73.6 |strongbr|  19 |  11k| 357 | 605 | 494 |  2 |  20 |2229 | 5.514979e+05 | 5.586632e+05 |   1.30%|  16.47%
*67.2s|   165 |    22 | 16099 |  73.3 |    LP  |  19 |  11k| 361 | 605 | 494 |  3 |  24 |2248 | 5.514979e+05 | 5.586574e+05 |   1.30%|  16.56%
*67.8s|   173 |    14 | 16342 |  71.3 |    LP  |  20 |  11k| 361 | 605 | 494 |  1 |  24 |2292 | 5.514979e+05 | 5.551353e+05 |   0.66%|  22.31%
*68.0s|   178 |    11 | 16425 |  69.8 |    LP  |  20 |  11k| 361 | 605 | 494 |  1 |  24 |2297 | 5.514979e+05 | 5.521970e+05 |   0.13%|  41.52%
*68.0s|   180 |     7 | 16439 |  69.1 |strongbr|  20 |  11k| 361 | 605 | 494 |  3 |  24 |2298 | 5.514979e+05 | 5.521717e+05 |   0.12%|  41.85%

SCIP Status        : problem is solved [optimal solution found]
Solving Time (sec) : 70.85
Solving Nodes      : 189
Primal Bound       : +5.52171668463563e+05 (808 solutions)
Dual Bound         : +5.52171668463563e+05
Gap                : 0.00 %
Solve Status: optimal
Solve Time: 70.86 seconds
